param set_len = 34;
param target_sum = 8700502769;
param values := [1] 448505450 [2] 91647589 [3] 652510279 [4] 272662975 [5] 599378029 [6] 534811794 [7] 990316936 [8] 492865249 [9] 679414580 [10] 244770996 [11] 813945211 [12] 901000236 [13] 304490096 [14] 383101723 [15] 360665494 [16] 13344676 [17] 1012622637 [18] 350147236 [19] 44585663 [20] 1013158062 [21] 942042180 [22] 612651121 [23] 706697927 [24] 616543514 [25] 444183109 [26] 290363692 [27] 80138950 [28] 370113982 [29] 790075113 [30] 128443677 [31] 780898822 [32] 338895380 [33] 979194230 [34] 300197366 ;
